NAME : block_02.228401.tour
COMMENT : Length = 228401
COMMENT : Found by LKH-3 [Keld Helsgaun] Mon Feb  2 23:04:16 2026
TYPE : TOUR
DIMENSION : 66
TOUR_SECTION
35
14
7
8
15
36
54
55
37
16
9
17
38
56
57
39
18
19
40
58
59
41
20
21
42
60
61
43
22
23
44
62
63
45
24
25
46
64
65
47
26
27
48
49
28
29
50
30
51
2
66
1
31
10
3
4
11
32
33
12
5
6
13
34
52
53
-1
EOF
